unsat
(define-fun skel ((n118 Bool) (n107 Bool) (i_13 Bool) (n117 Bool)) Bool (let ((_let_1 (and n107 i_13))) (and n117 (and (or n118 _let_1) (not (and n118 _let_1))))))
31.67user 0.01system 0:31.69elapsed 99%CPU (0avgtext+0avgdata 74976maxresident)k
8inputs+8outputs (0major+13543minor)pagefaults 0swaps
